words_hard_train/4607.qaiger
aag 26 9 0 1 17
2
4
8
12
14
20
22
28
34
53
6 2 5
10 7 9
16 13 15
18 10 16
24 21 23
26 18 24
30 27 29
32 8 5
36 34 22
38 32 36
40 12 14
42 38 40
44 42 20
46 45 28
48 31 47
50 3 34
52 48 51
i0 1 x2[0]
i1 2 y2[7]
i2 2 y2[2]
i3 2 y2[1]
i4 2 y2[4]
i5 2 y2[5]
i6 2 y2[6]
i7 2 y2[3]
i8 2 y2[0]
o0 bv[0]
c
simplified
  >=
    add
      abs
        2 y2
      and
        1
        1 x2
    1
