words_hard_train/4607.qaiger.qdimacs
p cnf 26 52
a 1 0
e 2 3 4 5 6 7 8 9 10 11 12 13 14 15 16 17 18 19 20 21 22 23 24 25 26 0
-1 2 3 0
1 -3 0
-2 -3 0
3 4 5 0
-3 -5 0
-4 -5 0
6 7 8 0
-6 -8 0
-7 -8 0
-5 -8 9 0
5 -9 0
8 -9 0
10 11 12 0
-10 -12 0
-11 -12 0
-9 -12 13 0
9 -13 0
12 -13 0
13 14 15 0
-13 -15 0
-14 -15 0
-4 2 16 0
4 -16 0
-2 -16 0
-17 -11 18 0
17 -18 0
11 -18 0
-16 -18 19 0
16 -19 0
18 -19 0
-6 -7 20 0
6 -20 0
7 -20 0
-19 -20 21 0
19 -21 0
20 -21 0
-21 -10 22 0
21 -22 0
10 -22 0
22 -14 23 0
-22 -23 0
14 -23 0
15 23 24 0
-15 -24 0
-23 -24 0
1 -17 25 0
-1 -25 0
17 -25 0
-24 25 26 0
24 -26 0
-25 -26 0
-26 0
